
Log started (V12.10.0.0) Thu Apr  8 06:30:58 2021


Problem 'asset.lp' read.
Read time = 0.00 sec. (0.11 ticks)
New value for default parallel thread count: 1
New value for time limit in seconds: 200
Version identifier: 12.10.0.0 | 2019-11-26 | 843d4de
CPXPARAM_Threads                                 1
CPXPARAM_TimeLimit                               200
Found incumbent of value -0.886299 after 0.00 sec. (0.05 ticks)
Tried aggregator 6 times.
MIP Presolve eliminated 735 rows and 547 columns.
MIP Presolve modified 1173 coefficients.
Aggregator did 182 substitutions.
Reduced MIP has 189 rows, 192 columns, and 745 nonzeros.
Reduced MIP has 171 binaries, 4 generals, 0 SOSs, and 0 indicators.
Presolve time = 0.00 sec. (4.46 ticks)
Probing fixed 59 vars, tightened 0 bounds.
Probing time = 0.00 sec. (0.41 ticks)
Cover probing fixed 0 vars, tightened 25 bounds.
Tried aggregator 2 times.
MIP Presolve eliminated 87 rows and 83 columns.
MIP Presolve modified 11 coefficients.
Aggregator did 1 substitutions.
Reduced MIP has 101 rows, 106 columns, and 310 nonzeros.
Reduced MIP has 88 binaries, 2 generals, 0 SOSs, and 0 indicators.
Presolve time = 0.00 sec. (0.82 ticks)
Probing fixed 0 vars, tightened 1 bounds.
Probing time = 0.00 sec. (0.15 ticks)
Tried aggregator 1 time.
Detecting symmetries...
Reduced MIP has 101 rows, 106 columns, and 310 nonzeros.
Reduced MIP has 88 binaries, 2 generals, 0 SOSs, and 0 indicators.
Presolve time = 0.00 sec. (0.22 ticks)
Probing time = 0.00 sec. (0.15 ticks)
Clique table members: 295.
MIP emphasis: balance optimality and feasibility.
MIP search method: dynamic search.
Parallel mode: none, using 1 thread.
Root relaxation solution time = 0.00 sec. (0.40 ticks)

        Nodes                                         Cuts/
   Node  Left     Objective  IInf  Best Integer    Best Bound    ItCnt     Gap

*     0+    0                           -0.8863      187.6106              --- 
      0     0       79.4641    12       -0.8863       79.4641       59     --- 
*     0+    0                           79.4604       79.4641             0.00%

Root node processing (before b&c):
  Real time             =    0.01 sec. (7.35 ticks)
Sequential b&c:
  Real time             =    0.00 sec. (0.00 ticks)
                          ------------
Total (root+branch&cut) =    0.01 sec. (7.35 ticks)

Solution pool: 2 solutions saved.

MIP - Integer optimal, tolerance (0.0001/1e-06):  Objective =  7.9460401780e+01
Current MIP best bound =  7.9464089442e+01 (gap = 0.00368766, 0.00%)
Solution time =    0.01 sec.  Iterations = 59  Nodes = 0 (1)
Deterministic time = 7.36 ticks  (699.91 ticks/sec)


Incumbent solution
Variable Name           Solution Value
F                            85.000000
f1                            0.899598
f2                            4.640000
y46                           1.000000
y18                           1.000000
y66                           1.000000
y186                          1.000000
y177                          1.000000
s2                            6.000000
s21                           6.000000
s44                           6.000000
s46                           6.764848
s70                           6.000000
s80                           6.000000
s82                           6.000000
s90                           6.000000
s109                          6.000000
s115                          6.000000
s120                          6.000000
s126                          6.000000
s172                          6.000000
s179                          6.000000
s105                          6.010000
s5                            6.210000
s84                           6.230000
s137                          6.280000
s178                          6.280000
s135                          6.290000
s73                           6.470000
s64                           6.540000
s18                           7.505018
s66                           7.411694
s33                           6.860000
s122                          6.890000
s173                          6.900000
s145                          6.920000
s19                           6.970000
s25                           6.980000
s186                          7.656812
s106                          7.020000
s61                           7.100000
s177                          7.526115
x43x46x1                      1.000000
x20x66x1                      1.000000
x110x18x1                     1.000000
x9x18x1                       1.000000
x9x66x1                       1.000000
x7x177x2                      1.000000
x20x186x2                     1.000000
x110x177x2                    1.000000
x43x46x3                      1.000000
x7x186x3                      1.000000
x46x0x1                       1.000000
x46x0x3                       1.000000
x18x0x1                       2.000000
x66x0x1                       2.000000
x186x0x2                      1.000000
x186x0x3                      1.000000
x177x0x2                      2.000000
s43                           5.187961
z43z46z1                      1.000000
z43z46z3                      1.000000
z43z145z3                     1.000000
s7                            5.809666
z7z186z3                      1.000000
z7z177z2                      1.000000
s20                           5.765117
z20z66z1                      1.000000
z20z186z2                     1.000000
s110                          5.870000
z110z18z1                     1.000000
z110z177z2                    1.000000
s9                            5.942946
z9z18z1                       1.000000
z9z66z1                       1.000000
All other variables in the range 1-927 are 0.
